2 1
3 1
3 2
4 1
4 2
4 3
5 1
5 2
5 3
5 4
6 1
6 2
6 3
6 4
6 5
7 1
7 2
7 3
7 4
7 5
7 6
8 1
8 2
8 3
8 4
8 5
8 6
8 7
9 1
9 2
9 3
9 4
9 5
9 6
9 7
9 8
10 1
10 2
10 3
10 4
10 5
10 6
10 7
10 8
10 9
11 1
11 2
11 3
11 4
11 5
11 6
11 7
11 8
11 9
11 10
12 1
12 2
12 3
12 4
12 5
12 6
12 7
12 8
12 9
12 10
12 11
13 1
13 2
13 3
13 4
13 5
13 6
13 7
13 8
13 9
13 10
13 11
13 12
14 1
14 2
14 3
14 4
14 5
14 6
14 7
14 8
14 9
14 10
14 11
14 12
14 13
15 1
15 2
15 3
15 4
15 5
15 6
15 7
15 8
15 9
15 10
15 11
15 12
15 13
15 14
16 1
16 2
16 3
16 4
16 5
16 6
16 7
16 8
16 9
16 10
16 11
16 12
16 13
16 14
16 15
18 17
19 17
19 18
20 17
20 18
20 19
21 17
21 18
21 19
21 20
22 17
22 18
22 19
22 20
22 21
23 17
23 18
23 19
23 20
23 21
23 22
24 17
24 18
24 19
24 20
24 21
24 22
24 23
25 17
25 18
25 19
25 20
25 21
25 22
25 23
25 24
26 17
26 18
26 19
26 20
26 21
26 22
26 23
26 24
26 25
27 17
27 18
27 19
27 20
27 21
27 22
27 23
27 24
27 25
27 26
28 17
28 18
28 19
28 20
28 21
28 22
28 23
28 24
28 25
28 26
28 27
29 17
29 18
29 19
29 20
29 21
29 22
29 23
29 24
29 25
29 26
29 27
29 28
30 17
30 18
30 19
30 20
30 21
30 22
30 23
30 24
30 25
30 26
30 27
30 28
30 29
31 17
31 18
31 19
31 20
31 21
31 22
31 23
31 24
31 25
31 26
31 27
31 28
31 29
31 30
32 17
32 18
32 19
32 20
32 21
32 22
32 23
32 24
32 25
32 26
32 27
32 28
32 29
32 30
32 31
33 1
33 2
33 3
33 4
33 5
33 6
33 7
33 8
33 9
33 10
33 11
33 12
33 13
33 14
33 15
33 16
33 17
33 27
33 28
33 29
33 30
33 31
33 32
36 1
36 2
36 3
36 4
36 5
36 6
36 7
36 8
36 9
36 10
36 11
36 12
36 13
36 14
36 15
36 16
36 17
36 27
36 28
36 29
36 30
36 31
36 32
36 33
41 1
41 2
41 3
41 4
41 5
41 6
41 7
41 8
41 9
41 10
41 11
41 12
41 13
41 14
41 15
41 16
41 17
41 27
41 28
41 29
41 30
41 31
41 32
41 33
41 36
43 1
43 2
43 3
43 4
43 5
43 6
43 7
43 8
43 9
43 10
43 11
43 12
43 13
43 14
43 15
43 16
43 17
43 27
43 28
43 29
43 30
43 31
43 32
43 33
43 36
43 41
45 1
45 2
45 3
45 4
45 5
45 6
45 7
45 8
45 9
45 10
45 11
45 12
45 13
45 14
45 15
45 16
45 17
45 27
45 28
45 29
45 30
45 31
45 32
45 33
45 36
45 41
45 43
47 1
47 2
47 3
47 4
47 5
47 6
47 7
47 8
47 9
47 10
47 11
47 12
47 13
47 14
47 15
47 16
47 17
47 27
47 28
47 29
47 30
47 31
47 32
47 33
47 36
48 1
48 2
48 3
48 4
48 5
48 6
48 7
48 8
48 9
48 10
48 11
48 12
48 13
48 14
48 15
48 16
48 17
48 27
48 28
48 29
48 30
48 31
48 32
48 33
48 36
48 41
48 43
48 45
48 47
51 1
51 2
51 3
51 4
51 5
51 6
51 7
51 8
51 9
51 10
51 11
51 12
51 13
51 14
51 15
51 16
51 17
51 27
51 33
51 36
51 41
51 43
51 45
51 47
51 48
54 1
54 2
54 3
54 4
54 5
54 6
54 7
54 8
54 9
54 10
54 11
54 12
54 13
54 14
54 15
54 16
54 17
54 27
54 28
54 29
54 30
54 31
54 32
54 33
54 36
54 41
54 43
54 45
54 48
54 51
56 1
56 2
56 3
56 4
56 5
56 6
56 7
56 8
56 9
56 10
56 11
56 12
56 13
56 14
56 15
56 16
56 17
56 27
56 36
56 41
56 43
56 45
56 51
56 54
57 1
57 2
57 3
57 4
57 5
57 6
57 7
57 8
57 9
57 10
57 11
57 12
57 13
57 14
57 15
57 16
57 17
57 27
57 36
57 41
57 43
57 45
57 51
57 54
57 56
59 1
59 2
59 3
59 4
59 5
59 6
59 7
59 8
59 9
59 10
59 11
59 12
59 13
59 14
59 15
59 16
59 17
59 27
59 33
59 36
59 41
59 43
59 45
59 48
59 51
59 54
60 1
60 2
60 3
60 4
60 5
60 6
60 7
60 8
60 9
60 10
60 11
60 12
60 13
60 14
60 15
60 16
60 17
60 27
60 33
60 36
60 41
60 43
60 45
60 48
60 51
60 54
60 59
61 1
61 2
61 3
61 4
61 5
61 6
61 7
61 8
61 9
61 10
61 11
61 12
61 13
61 14
61 15
61 16
61 17
61 27
61 33
61 36
61 41
61 43
61 45
61 48
61 51
61 54
61 56
61 57
61 60
62 1
62 2
62 3
62 5
62 6
62 7
62 8
62 9
62 10
62 11
62 12
62 13
62 14
62 16
62 17
62 18
62 19
62 20
62 21
62 22
62 23
62 24
62 25
62 26
62 27
62 28
62 29
62 30
62 31
62 32
63 1
63 2
63 3
63 6
63 7
63 8
63 9
63 10
63 11
63 12
63 13
63 14
63 16
63 17
63 18
63 19
63 20
63 21
63 22
63 23
63 24
63 25
63 26
63 27
63 28
63 29
63 30
63 31
63 32
64 1
64 2
64 3
64 7
64 8
64 9
64 10
64 11
64 12
64 13
64 14
64 16
64 17
64 18
64 19
64 20
64 21
64 22
64 23
64 24
64 25
64 26
64 27
64 28
64 29
64 30
64 31
64 32
65 1
65 2
65 3
65 8
65 9
65 10
65 11
65 12
65 13
65 14
65 16
65 17
65 18
65 19
65 20
65 21
65 22
65 23
65 24
65 25
65 26
65 27
65 28
65 29
65 30
65 31
65 32
66 1
66 2
66 3
66 9
66 10
66 11
66 12
66 13
66 14
66 16
66 17
66 18
66 19
66 20
66 21
66 22
66 23
66 24
66 25
66 26
66 27
66 28
66 29
66 30
66 31
66 32
67 1
67 2
67 3
67 10
67 11
67 12
67 13
67 14
67 15
67 16
67 17
67 18
67 19
67 20
67 21
67 22
67 23
67 24
67 25
67 26
67 27
67 28
67 29
67 30
67 31
67 32
68 1
68 2
68 3
68 11
68 12
68 13
68 14
68 15
68 16
68 17
68 18
68 19
68 20
68 21
68 22
68 23
68 24
68 25
68 26
68 27
68 28
68 29
68 30
68 31
68 32
68 67
69 1
69 2
69 3
69 11
69 12
69 13
69 14
69 15
69 16
69 17
69 18
69 19
69 20
69 21
69 22
69 23
69 24
69 25
69 26
69 27
69 28
69 29
69 30
69 31
69 32
69 67
69 68
70 1
70 2
70 3
70 4
70 5
70 6
70 7
70 8
70 9
70 10
70 11
70 12
70 13
70 14
70 15
70 16
70 17
70 19
70 20
70 21
70 22
70 23
70 24
70 25
70 26
71 1
71 2
71 3
71 4
71 5
71 6
71 7
71 8
71 9
71 10
71 11
71 12
71 13
71 14
71 15
71 16
71 17
71 20
71 21
71 22
71 23
71 24
71 25
71 26
72 1
72 2
72 3
72 4
72 5
72 6
72 7
72 8
72 9
72 10
72 11
72 12
72 13
72 14
72 15
72 16
72 17
72 21
72 22
72 23
72 24
72 25
72 26
73 1
73 2
73 3
73 4
73 5
73 6
73 7
73 8
73 9
73 10
73 11
73 12
73 13
73 14
73 15
73 16
73 17
73 22
73 23
73 24
73 25
73 26
74 1
74 2
74 3
74 4
74 5
74 6
74 7
74 8
74 9
74 10
74 11
74 12
74 13
74 14
74 15
74 16
74 17
74 23
74 24
74 25
74 26
75 1
75 2
75 3
75 4
75 5
75 6
75 7
75 8
75 9
75 10
75 11
75 12
75 13
75 14
75 15
75 16
75 17
75 24
75 25
75 26
76 1
76 2
76 3
76 4
76 5
76 6
76 7
76 8
76 9
76 10
76 11
76 12
76 13
76 14
76 15
76 16
76 17
76 25
76 26
77 1
77 2
77 3
77 4
77 5
77 6
77 7
77 8
77 9
77 10
77 11
77 12
77 13
77 14
77 15
77 16
77 17
77 26
78 1
78 2
78 3
78 4
78 5
78 6
78 7
78 8
78 9
78 10
78 11
78 12
78 13
78 14
78 15
78 16
78 17
79 1
79 2
79 3
79 11
79 12
79 13
79 14
79 15
79 16
79 17
79 18
79 19
79 20
79 21
79 22
79 23
79 24
79 25
79 26
79 27
79 28
79 29
79 30
79 31
79 32
79 67
79 68
79 69
80 1
80 2
80 3
80 4
80 5
80 6
80 7
80 8
80 9
80 10
80 11
80 12
80 13
80 14
80 15
80 16
80 17
81 1
81 2
81 3
81 11
81 12
81 13
81 14
81 15
81 16
81 17
81 18
81 19
81 20
81 21
81 22
81 23
81 24
81 25
81 26
81 27
81 28
81 29
81 30
81 31
81 32
81 67
81 68
81 69
81 79
82 1
82 2
82 3
82 4
82 5
82 6
82 7
82 8
82 9
82 10
82 11
82 12
82 13
82 14
82 15
82 16
82 17
83 1
83 2
83 3
83 11
83 12
83 13
83 14
83 15
83 16
83 17
83 18
83 19
83 20
83 21
83 22
83 23
83 24
83 25
83 26
83 27
83 28
83 29
83 30
83 31
83 32
83 67
83 68
83 69
83 79
83 81
84 1
84 2
84 3
84 11
84 12
84 13
84 14
84 15
84 16
84 17
84 18
84 19
84 20
84 21
84 22
84 23
84 24
84 25
84 26
84 27
84 28
84 29
84 30
84 31
84 32
84 67
84 68
84 69
84 79
84 81
84 83
85 1
85 2
85 3
85 4
85 5
85 6
85 7
85 8
85 9
85 10
85 11
85 12
85 13
85 14
85 15
85 16
85 17
87 1
87 2
87 3
87 4
87 5
87 6
87 7
87 8
87 9
87 10
87 11
87 12
87 13
87 14
87 15
87 16
87 17
87 47
89 1
89 2
89 3
89 4
89 5
89 6
89 7
89 8
89 9
89 10
89 11
89 12
89 13
89 14
89 15
89 16
89 17
89 47
90 1
90 2
90 3
90 4
90 5
90 6
90 7
90 8
90 9
90 10
90 11
90 12
90 13
90 14
90 15
90 16
90 17
90 47
90 89
91 1
91 2
91 3
91 4
91 5
91 6
91 7
91 8
91 9
91 10
91 11
91 12
91 13
91 14
91 15
91 16
91 17
91 47
95 1
95 2
95 3
95 4
95 5
95 6
95 7
95 8
95 9
95 10
95 11
95 12
95 13
95 14
95 15
95 16
95 17
95 27
95 33
95 36
95 47
95 48
95 51
97 1
97 2
97 3
97 4
97 5
97 6
97 7
97 8
97 9
97 10
97 11
97 12
97 13
97 14
97 15
97 16
97 17
97 27
97 33
97 36
97 48
97 51
102 1
102 2
102 3
102 4
102 5
102 6
102 7
102 8
102 9
102 10
102 11
102 12
102 13
102 14
102 15
102 16
102 17
102 27
102 33
102 36
102 41
102 43
102 45
102 48
102 51
102 54
103 1
103 2
103 3
103 4
103 5
103 6
103 7
103 8
103 9
103 10
103 11
103 12
103 13
103 14
103 15
103 16
103 17
103 27
103 33
103 36
103 41
103 43
103 45
103 48
103 51
103 54
104 1
104 2
104 3
104 4
104 5
104 6
104 7
104 8
104 9
104 10
104 11
104 12
104 13
104 14
104 15
104 16
104 17
104 27
104 33
104 36
104 41
104 43
104 45
104 48
104 51
104 54
104 103
105 1
105 2
105 3
105 4
105 5
105 6
105 7
105 8
105 9
105 10
105 11
105 12
105 13
105 14
105 15
105 16
105 17
105 27
105 33
105 36
105 41
105 43
105 45
105 48
105 51
105 54
106 1
106 2
106 3
106 4
106 5
106 6
106 7
106 8
106 9
106 10
106 11
106 12
106 13
106 14
106 15
106 16
106 17
106 27
106 33
106 36
106 41
106 43
106 45
106 48
106 51
106 54
113 1
113 2
113 3
113 4
113 5
113 6
113 7
113 8
113 9
113 10
113 11
113 12
113 13
113 14
113 15
113 16
113 17
113 27
113 33
113 36
113 41
113 43
113 45
113 48
113 51
113 54
113 106
116 1
116 2
116 3
116 4
116 5
116 6
116 7
116 8
116 9
116 10
116 11
116 12
116 13
116 14
116 15
116 16
116 17
116 27
116 33
116 36
116 41
116 43
116 45
116 48
116 51
116 54
116 59
116 60
117 1
117 2
117 3
117 4
117 5
117 6
117 7
117 8
117 9
117 10
117 11
117 12
117 13
117 14
117 15
117 16
117 17
117 27
117 33
117 36
117 41
117 43
117 45
117 48
117 51
117 54
117 59
117 60
117 116
118 1
118 2
118 3
118 4
118 5
118 6
118 7
118 8
118 9
118 10
118 11
118 12
118 13
118 14
118 15
118 16
118 17
118 27
118 33
118 36
118 41
118 43
118 45
118 48
118 51
118 54
118 59
118 60
120 1
120 2
120 3
120 4
120 5
120 6
120 7
120 8
120 9
120 10
120 11
120 12
120 13
120 14
120 15
120 16
120 17
120 27
120 33
120 36
120 41
120 43
120 45
120 48
120 51
120 54
120 60
120 61
121 1
121 2
121 3
121 4
121 5
121 6
121 7
121 8
121 9
121 10
121 11
121 12
121 13
121 14
121 15
121 16
121 17
121 27
121 33
121 36
121 41
121 43
121 45
121 48
121 51
121 54
121 56
121 57
121 61
122 1
122 2
122 3
122 4
122 5
122 6
122 7
122 8
122 9
122 10
122 11
122 12
122 13
122 14
122 15
122 16
122 17
122 27
122 33
122 36
122 41
122 43
122 45
122 48
122 51
122 54
122 61
122 121
123 1
123 2
123 3
123 4
123 5
123 6
123 7
123 8
123 9
123 10
123 11
123 12
123 13
123 14
123 15
123 16
123 17
123 27
123 33
123 36
123 41
123 43
123 45
123 48
123 51
123 54
123 61
123 121
124 1
124 2
124 3
124 4
124 5
124 6
124 7
124 8
124 9
124 10
124 11
124 12
124 13
124 14
124 15
124 16
124 17
124 36
125 1
125 2
125 3
125 4
125 5
125 6
125 7
125 8
125 9
125 10
125 11
125 12
125 13
125 14
125 15
125 16
125 17
125 36
126 1
126 2
126 3
126 4
126 5
126 6
126 7
126 8
126 9
126 10
126 11
126 12
126 13
126 14
126 15
126 16
126 17
126 36
127 1
127 2
127 3
127 4
127 5
127 6
127 7
127 8
127 9
127 10
127 11
127 12
127 13
127 14
127 15
127 16
127 17
127 27
127 36
128 1
128 2
128 3
128 4
128 5
128 6
128 7
128 8
128 9
128 10
128 11
128 12
128 13
128 14
128 15
128 16
128 17
128 26
128 27
128 36
128 127
129 1
129 2
129 3
129 4
129 5
129 6
129 7
129 8
129 9
129 10
129 11
129 12
129 13
129 14
129 15
129 16
129 17
129 25
129 26
129 27
129 36
129 127
129 128
130 1
130 2
130 3
130 4
130 5
130 6
130 7
130 8
130 9
130 10
130 11
130 12
130 13
130 14
130 15
130 16
130 17
130 24
130 25
130 26
130 27
130 36
130 127
130 128
130 129
131 1
131 2
131 3
131 4
131 5
131 6
131 7
131 8
131 9
131 10
131 11
131 12
131 13
131 14
131 15
131 16
131 17
131 23
131 24
131 25
131 26
131 27
131 36
131 127
131 128
131 129
131 130
132 1
132 2
132 3
132 4
132 5
132 6
132 7
132 8
132 9
132 10
132 11
132 12
132 13
132 14
132 15
132 16
132 17
132 22
132 23
132 24
132 25
132 26
132 27
132 36
132 127
132 128
132 129
132 130
132 131
133 1
133 2
133 3
133 4
133 5
133 6
133 7
133 8
133 9
133 10
133 11
133 12
133 13
133 14
133 15
133 16
133 17
133 21
133 22
133 23
133 24
133 25
133 26
133 27
133 36
133 127
133 128
133 129
133 130
133 131
133 132
134 1
134 2
134 3
134 4
134 5
134 6
134 7
134 8
134 9
134 10
134 11
134 12
134 13
134 14
134 15
134 16
134 17
134 20
134 21
134 22
134 23
134 24
134 25
134 26
134 27
134 36
134 127
134 128
134 129
134 130
134 131
134 132
134 133
135 1
135 2
135 3
135 4
135 5
135 6
135 7
135 8
135 9
135 10
135 11
135 12
135 13
135 14
135 15
135 16
135 17
135 19
135 20
135 21
135 22
135 23
135 24
135 25
135 26
135 27
135 36
135 127
135 128
135 129
135 130
135 131
135 132
135 133
135 134
136 1
136 2
136 9
136 10
136 16
136 17
136 18
136 19
136 20
136 21
136 22
136 23
136 24
136 25
136 26
136 27
136 28
136 29
136 30
136 31
136 32
136 67
136 68
136 69
137 1
137 2
137 8
137 9
137 10
137 16
137 17
137 18
137 19
137 20
137 21
137 22
137 23
137 24
137 25
137 26
137 27
137 28
137 29
137 30
137 31
137 32
137 67
137 68
137 69
137 136
138 1
138 2
138 7
138 8
138 9
138 10
138 16
138 17
138 18
138 19
138 20
138 21
138 22
138 23
138 24
138 25
138 26
138 27
138 28
138 29
138 30
138 31
138 32
138 67
138 68
138 69
138 136
138 137
139 1
139 2
139 6
139 7
139 8
139 9
139 10
139 16
139 17
139 18
139 19
139 20
139 21
139 22
139 23
139 24
139 25
139 26
139 27
139 28
139 29
139 30
139 31
139 32
139 67
139 68
139 69
139 136
139 137
139 138
140 1
140 2
140 5
140 6
140 7
140 8
140 9
140 10
140 16
140 17
140 18
140 19
140 20
140 21
140 22
140 23
140 24
140 25
140 26
140 27
140 28
140 29
140 30
140 31
140 32
140 67
140 68
140 69
140 136
140 137
140 138
140 139
141 1
141 2
141 3
141 4
141 5
141 6
141 7
141 8
141 9
141 10
141 11
141 12
141 13
141 14
141 15
141 16
141 17
141 27
141 33
141 36
141 41
141 43
141 45
141 48
141 51
141 54
141 61
141 121
142 1
142 2
142 3
142 4
142 5
142 6
142 7
142 8
142 9
142 10
142 11
142 12
142 13
142 14
142 15
142 16
142 17
142 27
142 33
142 36
142 41
142 43
142 45
142 48
142 51
142 54
142 61
142 121
143 1
143 2
143 3
143 4
143 5
143 6
143 7
143 8
143 9
143 10
143 11
143 12
143 13
143 14
143 15
143 16
143 17
143 27
143 33
143 36
143 41
143 43
143 45
143 48
143 51
143 54
143 61
143 121
144 1
144 2
144 3
144 4
144 5
144 6
144 7
144 8
144 9
144 10
144 11
144 12
144 13
144 14
144 15
144 16
144 17
144 27
144 33
144 36
144 41
144 43
144 45
144 48
144 51
144 54
144 61
144 121
147 1
147 2
147 3
147 4
147 5
147 6
147 7
147 8
147 9
147 10
147 11
147 12
147 13
147 14
147 15
147 16
147 17
147 27
147 33
147 36
147 41
147 43
147 45
147 48
147 54
147 61
147 121
148 1
148 2
148 3
148 4
148 5
148 6
148 7
148 8
148 9
148 10
148 11
148 12
148 13
148 14
148 15
148 16
148 17
148 27
148 33
148 36
148 41
148 43
148 45
148 48
148 54
148 61
148 121
149 1
149 2
149 3
149 4
149 5
149 6
149 7
149 8
149 9
149 10
149 11
149 12
149 13
149 14
149 15
149 16
149 17
149 27
149 33
149 36
149 41
149 43
149 45
149 48
149 51
149 54
151 1
151 2
151 3
151 4
151 5
151 6
151 7
151 8
151 9
151 10
151 11
151 12
151 13
151 14
151 15
151 16
151 17
151 27
151 33
151 36
151 41
151 43
151 45
151 48
151 51
151 54
157 1
157 2
157 3
157 4
157 5
157 6
157 7
157 8
157 9
157 10
157 11
157 12
157 13
157 14
157 15
157 16
157 17
157 27
157 33
157 36
157 41
157 43
157 45
157 48
157 51
157 54
157 61
157 121
158 1
158 2
158 3
158 4
158 5
158 6
158 7
158 8
158 9
158 10
158 11
158 12
158 13
158 14
158 15
158 16
158 17
158 27
158 33
158 36
158 41
158 43
158 45
158 48
158 51
158 54
158 61
158 121
158 157
159 1
159 2
159 3
159 4
159 5
159 6
159 7
159 8
159 9
159 10
159 11
159 12
159 13
159 14
159 15
159 16
159 17
159 27
159 33
159 36
159 41
159 43
159 45
159 48
159 51
159 54
159 61
159 121
160 1
160 2
160 3
160 4
160 5
160 6
160 7
160 8
160 9
160 10
160 11
160 12
160 13
160 14
160 15
160 16
160 17
160 27
160 33
160 36
160 41
160 43
160 45
160 48
160 51
160 54
160 61
160 121
161 1
161 2
161 3
161 4
161 5
161 6
161 7
161 8
161 9
161 10
161 11
161 12
161 13
161 14
161 15
161 16
161 17
161 27
161 36
161 41
161 43
161 45
161 51
161 54
161 56
161 61
161 121
162 1
162 2
162 3
162 4
162 5
162 6
162 7
162 8
162 9
162 10
162 11
162 12
162 13
162 14
162 15
162 16
162 17
162 27
162 36
162 41
162 43
162 45
162 51
162 54
162 61
162 121
162 161
163 1
163 2
163 3
163 4
163 5
163 6
163 7
163 8
163 9
163 10
163 11
163 12
163 13
163 14
163 15
163 16
163 17
163 27
163 36
163 41
163 43
163 45
163 51
163 54
163 61
163 121
163 161
165 1
165 2
165 3
165 4
165 5
165 6
165 7
165 8
165 9
165 10
165 11
165 12
165 13
165 14
165 15
165 16
165 17
165 27
165 36
165 41
165 43
165 45
165 51
165 54
165 56
165 61
165 121
165 161
167 1
167 2
167 3
167 4
167 5
167 6
167 7
167 8
167 9
167 10
167 11
167 12
167 13
167 14
167 15
167 16
167 17
167 27
167 36
167 41
167 43
167 45
167 51
167 54
167 57
167 61
167 121
168 1
168 2
168 3
168 4
168 5
168 6
168 7
168 8
168 9
168 10
168 11
168 12
168 13
168 14
168 15
168 16
168 17
168 27
168 36
168 41
168 43
168 45
168 51
168 54
168 57
168 61
168 121
168 167
169 1
169 2
169 3
169 4
169 5
169 6
169 7
169 8
169 9
169 10
169 11
169 12
169 13
169 14
169 15
169 16
169 17
169 27
169 36
169 41
169 43
169 45
169 51
169 54
169 57
169 61
169 121
169 167
170 1
170 2
170 3
170 4
170 5
170 6
170 7
170 8
170 9
170 10
170 11
170 12
170 13
170 14
170 15
170 16
170 17
170 27
170 36
170 41
170 43
170 45
170 51
170 54
170 57
170 61
170 121
170 167
170 169
171 1
171 2
171 3
171 4
171 5
171 6
171 7
171 8
171 9
171 10
171 11
171 12
171 13
171 14
171 15
171 16
171 17
171 27
171 36
171 41
171 43
171 45
171 51
171 54
171 57
171 61
171 121
171 167
171 169
172 1
172 2
172 3
172 4
172 5
172 6
172 7
172 8
172 9
172 10
172 11
172 12
172 13
172 14
172 15
172 16
172 17
172 27
172 36
172 41
172 43
172 45
172 51
172 54
172 57
172 61
172 121
172 167
172 169
173 1
173 2
173 3
173 4
173 5
173 6
173 7
173 8
173 9
173 10
173 11
173 12
173 13
173 14
173 15
173 16
173 17
173 27
173 36
173 41
173 43
173 45
173 51
173 54
173 57
173 61
173 121
173 167
173 169
173 172
174 1
174 2
174 3
174 4
174 5
174 6
174 7
174 8
174 9
174 10
174 11
174 12
174 13
174 14
174 15
174 16
174 17
174 27
174 36
174 41
174 43
174 45
174 51
174 54
174 57
174 61
174 121
174 167
174 169
174 172
175 1
175 2
175 3
175 4
175 5
175 6
175 7
175 8
175 9
175 10
175 11
175 12
175 13
175 14
175 15
175 16
175 17
175 27
175 36
175 41
175 43
175 45
175 51
175 54
175 57
175 61
175 121
175 167
175 169
176 1
176 2
176 3
176 4
176 5
176 6
176 7
176 8
176 9
176 10
176 11
176 12
176 13
176 14
176 15
176 16
176 17
176 27
176 36
176 41
176 43
176 45
176 51
176 54
176 57
176 61
176 121
176 167
177 1
177 2
177 3
177 4
177 5
177 6
177 7
177 8
177 9
177 10
177 11
177 12
177 13
177 14
177 15
177 16
177 17
177 27
177 36
177 41
177 43
177 45
177 51
177 54
177 57
177 61
177 121
177 167
178 1
178 2
178 3
178 4
178 5
178 6
178 7
178 8
178 9
178 10
178 11
178 12
178 13
178 14
178 15
178 16
178 17
178 27
178 36
178 41
178 43
178 51
178 54
178 57
178 61
178 121
178 167
179 1
179 2
179 3
179 4
179 5
179 6
179 7
179 8
179 9
179 10
179 11
179 12
179 13
179 14
179 15
179 16
179 17
179 27
179 36
179 41
179 43
179 51
179 54
179 57
179 61
179 121
179 167
180 1
180 2
180 3
180 4
180 5
180 6
180 7
180 8
180 9
180 10
180 11
180 12
180 13
180 14
180 15
180 16
180 17
180 27
180 36
180 41
180 43
180 51
180 54
180 57
180 61
180 121
180 167
181 1
181 2
181 3
181 4
181 5
181 6
181 7
181 8
181 9
181 10
181 11
181 12
181 13
181 14
181 15
181 16
181 17
181 27
181 36
181 41
181 43
181 51
181 54
181 57
181 61
181 121
181 167
185 1
185 2
185 3
185 4
185 5
185 6
185 7
185 8
185 9
185 10
185 11
185 12
185 13
185 14
185 15
185 16
185 17
185 27
185 36
185 41
185 43
185 45
185 48
185 51
185 54
185 61
185 121
186 1
186 2
186 3
186 4
186 5
186 6
186 7
186 8
186 9
186 10
186 11
186 12
186 13
186 14
186 15
186 16
186 17
186 27
186 36
186 41
186 43
186 45
186 48
186 51
186 54
186 56
186 61
186 121
186 185
187 1
187 2
187 3
187 4
187 5
187 6
187 7
187 8
187 9
187 10
187 11
187 12
187 13
187 14
187 15
187 16
187 17
187 27
187 36
187 41
187 43
187 45
187 48
187 51
187 54
187 61
187 121
187 185
187 186
188 1
188 2
188 3
188 4
188 5
188 6
188 7
188 8
188 9
188 10
188 11
188 12
188 13
188 14
188 15
188 16
188 17
188 27
188 36
188 41
188 43
188 45
188 51
188 54
188 56
188 61
188 121
188 185
188 186
188 187
189 1
189 2
189 3
189 4
189 5
189 6
189 7
189 8
189 9
189 10
189 11
189 12
189 13
189 14
189 15
189 16
189 17
189 27
189 36
189 41
189 43
189 45
189 51
189 54
189 61
189 121
189 185
189 186
189 187
189 188
190 1
190 2
190 3
190 4
190 5
190 6
190 7
190 8
190 9
190 10
190 11
190 12
190 13
190 14
190 15
190 16
190 17
190 27
190 36
190 41
190 43
190 45
190 51
190 54
190 61
190 121
190 185
190 186
190 187
190 188
191 1
191 2
191 3
191 4
191 5
191 6
191 7
191 8
191 9
191 10
191 11
191 12
191 13
191 14
191 15
191 16
191 17
191 27
191 36
191 41
191 43
191 45
191 51
191 54
191 61
191 121
191 185
191 186
191 187
191 188
192 1
192 2
192 3
192 4
192 5
192 6
192 7
192 8
192 9
192 10
192 11
192 12
192 13
192 14
192 15
192 16
192 17
192 27
192 36
192 41
192 43
192 45
192 51
192 54
192 61
192 121
192 185
192 186
192 187
192 188
192 191
193 1
193 2
193 3
193 4
193 5
193 6
193 7
193 8
193 9
193 10
193 11
193 12
193 13
193 14
193 15
193 16
193 17
193 27
193 36
193 41
193 43
193 45
193 51
193 54
193 61
193 121
193 185
193 186
193 187
193 188
194 1
194 2
194 3
194 4
194 5
194 6
194 7
194 8
194 9
194 10
194 11
194 12
194 13
194 14
194 15
194 16
194 17
194 27
194 36
194 41
194 43
194 45
194 51
194 54
194 61
194 121
194 185
194 186
194 187
194 188
194 193
195 1
195 2
195 3
195 4
195 5
195 6
195 7
195 8
195 9
195 10
195 11
195 12
195 13
195 14
195 15
195 16
195 17
195 27
195 36
195 41
195 43
195 45
195 51
195 54
195 56
195 61
195 121
195 185
195 186
195 188
195 193
196 1
196 2
196 3
196 4
196 5
196 6
196 7
196 8
196 9
196 10
196 11
196 12
196 13
196 14
196 15
196 16
196 17
196 27
196 36
196 41
196 43
196 45
196 51
196 54
196 61
196 121
196 186
196 188
196 193
196 195
197 1
197 2
197 3
197 4
197 5
197 6
197 7
197 8
197 9
197 10
197 11
197 12
197 13
197 14
197 15
197 16
197 17
197 27
197 36
197 41
197 43
197 45
197 51
197 54
197 61
197 121
197 186
197 188
197 195
199 1
199 2
199 3
199 4
199 5
199 6
199 7
199 8
199 9
199 10
199 11
199 12
199 13
199 14
199 15
199 16
199 17
199 27
199 36
199 41
199 43
199 45
199 51
199 54
199 56
199 61
199 121
199 186
199 188
199 195
200 1
200 2
200 3
200 4
200 5
200 6
200 7
200 8
200 9
200 10
200 11
200 12
200 13
200 14
200 15
200 16
200 17
200 27
200 36
200 41
200 43
200 45
200 51
200 54
200 56
200 61
200 121
200 188
200 195
201 1
201 2
201 3
201 4
201 5
201 6
201 7
201 8
201 9
201 10
201 11
201 12
201 13
201 14
201 15
201 16
201 17
201 27
201 36
201 41
201 43
201 45
201 51
201 54
201 56
201 61
201 121
201 188
202 1
202 2
202 3
202 4
202 5
202 6
202 7
202 8
202 9
202 10
202 11
202 12
202 13
202 14
202 15
202 16
202 17
202 27
202 36
202 41
202 43
202 45
202 51
202 54
202 56
202 61
202 121
202 188
202 201
203 1
203 2
203 3
203 4
203 5
203 6
203 7
203 8
203 9
203 10
203 11
203 12
203 13
203 14
203 15
203 16
203 17
203 27
203 36
203 41
203 43
203 45
203 51
203 54
203 56
203 61
203 121
203 201
205 1
205 2
205 3
205 4
205 5
205 6
205 7
205 8
205 9
205 10
205 11
205 12
205 13
205 14
205 15
205 16
205 17
205 27
205 33
205 36
205 41
205 43
205 45
205 48
205 51
205 54
206 1
206 2
206 3
206 4
206 5
206 6
206 7
206 8
206 9
206 10
206 11
206 12
206 13
206 14
206 15
206 16
206 17
206 27
206 33
206 36
206 41
206 43
206 45
206 48
206 51
206 54
206 205
30